15	3	2
3980	3980	3980	
298	36	36	
622	152	163	
819	186	202	
480	458	498	
980	295	310	
677	791	851	
468	124	124	
38	796	840	
766	246	262	
558	193	199	
512	2	2	
122	405	426	
961	155	169	
767	635	648	
107	833	909	
